
Gurobi 11.0.3 (linux64) logging started Sun Nov 24 17:00:56 2024

Set parameter LogFile to value "/home/yihong/Coding/OR_SUC/SUC_results_bigM100000_thread4/case24_ieee_rts_theta0.5_epsilon0.05_gurobi_seed1490000_num_gen100_N_WDR100_load_scaling_factor1_proposed_T20quadra_cost.txt"
Set parameter TimeLimit to value 3600
Gurobi Optimizer version 11.0.3 build v11.0.3rc0 (linux64 - "Ubuntu 20.04.6 LTS")

CPU model: AMD EPYC 7532 32-Core Processor, instruction set [SSE2|AVX|AVX2]
Thread count: 64 physical cores, 128 logical processors, using up to 4 threads

Optimize a model with 47882 rows, 24901 columns and 1096282 nonzeros
Model fingerprint: 0xf01c2975
Model has 2000 quadratic constraints
Variable types: 22901 continuous, 2000 integer (2000 binary)
Coefficient statistics:
  Matrix range     [3e-04, 2e+03]
  QMatrix range    [2e-03, 8e-03]
  QLMatrix range   [8e-02, 6e+01]
  Objective range  [1e+00, 1e+00]
  Bounds range     [1e+00, 1e+00]
  RHS range        [1e+00, 9e+03]
Presolve removed 39190 rows and 10594 columns
Presolve time: 0.36s
Presolved: 8692 rows, 14307 columns, 48232 nonzeros
Presolved model has 2000 quadratic constraint(s)
Variable types: 12307 continuous, 2000 integer (2000 binary)

Root relaxation: objective 4.264707e+04, 7326 iterations, 0.21 seconds (0.31 work units)

    Nodes    |    Current Node    |     Objective Bounds      |     Work
 Expl Unexpl |  Obj  Depth IntInf | Incumbent    BestBd   Gap | It/Node Time

H    0     0                    595196.42438 42647.0677  92.8%     -    0s
*    0     0               0    595196.42438 42647.0677  92.8%     -    0s
     0     0 372050.017    0  519 595196.424 372050.017  37.5%     -    1s
     0     0 557109.206    0  266 595196.424 557109.206  6.40%     -    1s
     0     0 557139.824    0   97 595196.424 557139.824  6.39%     -    1s
     0     0 557231.119    0   92 595196.424 557231.119  6.38%     -    1s
     0     0 557241.233    0   92 595196.424 557241.233  6.38%     -    1s
     0     0 557242.226    0   97 595196.424 557242.226  6.38%     -    1s
     0     0 557242.226    0   97 595196.424 557242.226  6.38%     -    1s
     0     2 557242.226    0   97 595196.424 557242.226  6.38%     -    2s
H  138   135                    557470.53718 557256.910  0.04%  27.6    4s
*  138   135              34    557470.53718 557256.910  0.04%  27.6    4s

Cutting planes:
  Gomory: 30
  Lift-and-project: 20
  Implied bound: 186
  MIR: 41
  Flow cover: 98
  RLT: 275
  Relax-and-lift: 83

Explored 139 nodes (22005 simplex iterations) in 5.31 seconds (6.79 work units)
Thread count was 4 (of 128 available processors)

Solution count 3: 557471 557471 595196 

Optimal solution found (tolerance 1.00e-03)
Warning: max constraint violation (5.2616e-07) exceeds tolerance
Best objective 5.574705371824e+05, best bound 5.572569098971e+05, gap 0.0383%
